
  32    1
  10

   0   0  11 2 3 4 5 6 7 9 10 11 16 19 
   3   1   7 30 29 27 18 13 12 8 
   4   3  10 31 30 28 27 24 22 18 17 14 13 
   3   2   7 28 27 25 24 17 15 13 
   3   3   7 30 29 27 24 20 17 13 
  10   2   6 27 24 22 21 17 14 
  10   2   6 26 24 23 21 15 14 
   2   2   7 31 28 26 25 24 20 17 
   4   2   4 24 22 20 13 
   3   1   3 29 22 18 
   6   1   2 23 14 
   7   2   3 22 21 20 
   6   1   2 26 21 
  10   2   2 25 20 
   1   3   2 22 20 
   3   1   2 21 20 
   7   3   1 23 
  10   2   1 20 
   1   1   1 20 
   5   4   1 32
   9   2   1 32
   2   3   1 32
   9   4   1 32
   7   1   1 32
   1   2   1 32
   4   2   1 32
   4   1   1 32
   5   1   1 32
   3   2   1 32
   5   2   1 32
   8   2   1 32
   0   0   0 
